10J3M/DAT/10J3MNLL-14.dat
10 3
23.1481 23.1481
30.8214 30.8214
22.406 22.406
28.7673 28.7673
17.6838 17.6838
18.7117 18.7117
27.88 27.88
27.6279 27.6279
16.2956 16.2956
25.1453 25.1453
79.4957