10J3M/SOL/10J3MNLL-14.sol
solution status: optimal solution found
objective value:                              84.5809
x#1#1                                               1 	(obj:0)
x#2#2                                               1 	(obj:0)
x#3#1                               0.897772154638188 	(obj:0)
x#3#2                               0.102227845361811 	(obj:0)
x#4#1                                               1 	(obj:0)
x#5#3                                               1 	(obj:0)
x#6#3                                               1 	(obj:0)
x#7#2                                               1 	(obj:0)
x#8#2                               0.102467848200626 	(obj:0)
x#8#3                               0.897532151799374 	(obj:0)
x#9#2                                               1 	(obj:0)
x#10#1                                              1 	(obj:0)
z                                             84.5809 	(obj:1)
